
  16    0


   0   9 2 3 4 5 11 12 13 14 15 
   5   3 8 7 6 
  10   3 8 7 6 
   2   2 10 6 
   8   1 9 
   8   1 16
  10   1 16
   6   1 16
   2   1 16
   8   1 16
  10   1 16
   3   1 16
   4   1 16
   1   1 16
   7   1 16
   0   0 
